-202.0 8.0 1.0 7.0 0.0 3.0 0.0 9.0 9.0 3.0 9.0 6.0 8.0 1.0 0.0 7.0 3.0 5.0 8.0 0.0 4.0 8.0 7.0 1.0 1.0 9.0 10.0 4.0 10.0 7.0 4.0 6.0 5.0 9.0 7.0 5.0 5.0 9.0 4.0 
8.0 -171.0 1.0 6.0 9.0 9.0 10.0 4.0 9.0 1.0 1.0 3.0 6.0 1.0 8.0 10.0 9.0 5.0 7.0 10.0 2.0 5.0 1.0 2.0 3.0 7.0 3.0 6.0 1.0 9.0 8.0 3.0 3.0 1.0 0.0 0.0 0.0 0.0 0.0 
1.0 1.0 -169.0 2.0 10.0 0.0 1.0 7.0 5.0 8.0 1.0 1.0 1.0 3.0 3.0 6.0 4.0 10.0 1.0 0.0 3.0 6.0 3.0 6.0 1.0 7.0 3.0 8.0 2.0 6.0 10.0 8.0 4.0 7.0 3.0 7.0 10.0 1.0 9.0 
7.0 6.0 2.0 -186.0 5.0 8.0 1.0 10.0 2.0 2.0 5.0 4.0 2.0 7.0 6.0 0.0 3.0 1.0 10.0 6.0 0.0 7.0 0.0 3.0 5.0 5.0 10.0 9.0 3.0 10.0 6.0 4.0 3.0 3.0 10.0 8.0 0.0 5.0 8.0 
0.0 9.0 10.0 5.0 -191.0 10.0 2.0 7.0 6.0 5.0 0.0 4.0 4.0 3.0 8.0 2.0 0.0 1.0 9.0 7.0 1.0 9.0 3.0 3.0 6.0 6.0 3.0 7.0 5.0 9.0 3.0 7.0 8.0 0.0 5.0 8.0 10.0 2.0 4.0 
3.0 9.0 0.0 8.0 10.0 -204.0 1.0 8.0 7.0 1.0 3.0 6.0 6.0 9.0 4.0 2.0 9.0 6.0 9.0 5.0 10.0 5.0 6.0 4.0 5.0 4.0 10.0 8.0 8.0 2.0 3.0 8.0 1.0 4.0 1.0 5.0 8.0 2.0 4.0 
0.0 10.0 1.0 1.0 2.0 1.0 -178.0 5.0 0.0 9.0 7.0 2.0 8.0 4.0 2.0 10.0 9.0 6.0 1.0 4.0 7.0 2.0 9.0 3.0 4.0 9.0 9.0 8.0 1.0 4.0 9.0 0.0 1.0 4.0 2.0 3.0 10.0 9.0 2.0 
9.0 4.0 7.0 10.0 7.0 8.0 5.0 -201.0 8.0 10.0 3.0 1.0 6.0 0.0 6.0 4.0 2.0 10.0 4.0 0.0 8.0 7.0 0.0 6.0 6.0 4.0 1.0 10.0 4.0 4.0 6.0 9.0 0.0 5.0 4.0 7.0 7.0 8.0 1.0 
9.0 9.0 5.0 2.0 6.0 7.0 0.0 8.0 -176.0 5.0 3.0 10.0 0.0 5.0 8.0 3.0 2.0 10.0 0.0 1.0 8.0 3.0 3.0 5.0 6.0 2.0 4.0 8.0 1.0 1.0 0.0 9.0 2.0 6.0 10.0 2.0 3.0 10.0 0.0 
3.0 1.0 8.0 2.0 5.0 1.0 9.0 10.0 5.0 -198.0 5.0 4.0 1.0 7.0 0.0 4.0 6.0 8.0 9.0 7.0 5.0 1.0 3.0 6.0 8.0 3.0 4.0 9.0 9.0 6.0 9.0 2.0 3.0 0.0 7.0 7.0 10.0 7.0 4.0 
9.0 1.0 1.0 5.0 0.0 3.0 7.0 3.0 3.0 5.0 -134.0 1.0 5.0 5.0 0.0 0.0 2.0 0.0 5.0 4.0 0.0 3.0 0.0 0.0 9.0 6.0 4.0 6.0 1.0 2.0 1.0 4.0 10.0 7.0 10.0 0.0 8.0 3.0 1.0 
6.0 3.0 1.0 4.0 4.0 6.0 2.0 1.0 10.0 4.0 1.0 -147.0 2.0 5.0 0.0 3.0 7.0 2.0 0.0 6.0 0.0 8.0 9.0 3.0 1.0 2.0 5.0 6.0 1.0 7.0 5.0 2.0 6.0 4.0 8.0 1.0 2.0 3.0 7.0 
8.0 6.0 1.0 2.0 4.0 6.0 8.0 6.0 0.0 1.0 5.0 2.0 -177.0 4.0 1.0 2.0 6.0 6.0 1.0 8.0 4.0 7.0 7.0 7.0 3.0 8.0 1.0 9.0 1.0 6.0 7.0 6.0 0.0 4.0 9.0 2.0 6.0 5.0 8.0 
1.0 1.0 3.0 7.0 3.0 9.0 4.0 0.0 5.0 7.0 5.0 5.0 4.0 -190.0 10.0 2.0 9.0 0.0 9.0 4.0 2.0 10.0 7.0 10.0 0.0 4.0 10.0 4.0 0.0 3.0 1.0 9.0 10.0 3.0 8.0 3.0 6.0 6.0 6.0 
0.0 8.0 3.0 6.0 8.0 4.0 2.0 6.0 8.0 0.0 0.0 0.0 1.0 10.0 -183.0 6.0 3.0 6.0 2.0 9.0 4.0 7.0 9.0 8.0 2.0 0.0 10.0 10.0 3.0 9.0 3.0 0.0 10.0 5.0 0.0 1.0 5.0 7.0 8.0 
7.0 10.0 6.0 0.0 2.0 2.0 10.0 4.0 3.0 4.0 0.0 3.0 2.0 2.0 6.0 -185.0 7.0 2.0 1.0 7.0 8.0 5.0 4.0 0.0 3.0 9.0 5.0 7.0 8.0 4.0 3.0 4.0 5.0 10.0 10.0 4.0 4.0 5.0 9.0 
3.0 9.0 4.0 3.0 0.0 9.0 9.0 2.0 2.0 6.0 2.0 7.0 6.0 9.0 3.0 7.0 -226.0 10.0 10.0 0.0 8.0 8.0 9.0 7.0 9.0 7.0 5.0 9.0 5.0 1.0 10.0 9.0 10.0 3.0 3.0 7.0 7.0 1.0 7.0 
5.0 5.0 10.0 1.0 1.0 6.0 6.0 10.0 10.0 8.0 0.0 2.0 6.0 0.0 6.0 2.0 10.0 -196.0 9.0 10.0 0.0 10.0 7.0 4.0 0.0 3.0 3.0 3.0 5.0 5.0 6.0 10.0 2.0 7.0 5.0 5.0 5.0 1.0 8.0 
8.0 7.0 1.0 10.0 9.0 9.0 1.0 4.0 0.0 9.0 5.0 0.0 1.0 9.0 2.0 1.0 10.0 9.0 -184.0 6.0 10.0 10.0 5.0 4.0 2.0 2.0 8.0 3.0 0.0 4.0 7.0 0.0 7.0 3.0 6.0 4.0 4.0 2.0 2.0 
0.0 10.0 0.0 6.0 7.0 5.0 4.0 0.0 1.0 7.0 4.0 6.0 8.0 4.0 9.0 7.0 0.0 10.0 6.0 -185.0 5.0 0.0 7.0 8.0 2.0 0.0 0.0 10.0 6.0 9.0 5.0 5.0 4.0 9.0 9.0 1.0 4.0 7.0 0.0 
4.0 2.0 3.0 0.0 1.0 10.0 7.0 8.0 8.0 5.0 0.0 0.0 4.0 2.0 4.0 8.0 8.0 0.0 10.0 5.0 -200.0 4.0 10.0 4.0 7.0 6.0 8.0 2.0 8.0 6.0 4.0 8.0 8.0 1.0 5.0 9.0 8.0 10.0 3.0 
8.0 5.0 6.0 7.0 9.0 5.0 2.0 7.0 3.0 1.0 3.0 8.0 7.0 10.0 7.0 5.0 8.0 10.0 10.0 0.0 4.0 -208.0 0.0 3.0 7.0 6.0 7.0 2.0 10.0 10.0 5.0 3.0 1.0 0.0 10.0 0.0 7.0 10.0 2.0 
7.0 1.0 3.0 0.0 3.0 6.0 9.0 0.0 3.0 3.0 0.0 9.0 7.0 7.0 9.0 4.0 9.0 7.0 5.0 7.0 10.0 0.0 -195.0 7.0 1.0 3.0 5.0 5.0 3.0 0.0 6.0 6.0 10.0 4.0 10.0 6.0 3.0 10.0 7.0 
1.0 2.0 6.0 3.0 3.0 4.0 3.0 6.0 5.0 6.0 0.0 3.0 7.0 10.0 8.0 0.0 7.0 4.0 4.0 8.0 4.0 3.0 7.0 -187.0 3.0 1.0 10.0 7.0 7.0 7.0 10.0 2.0 5.0 6.0 9.0 10.0 0.0 0.0 6.0 
1.0 3.0 1.0 5.0 6.0 5.0 4.0 6.0 6.0 8.0 9.0 1.0 3.0 0.0 2.0 3.0 9.0 0.0 2.0 2.0 7.0 7.0 1.0 3.0 -175.0 4.0 7.0 6.0 9.0 6.0 6.0 9.0 3.0 7.0 10.0 3.0 2.0 9.0 0.0 
9.0 7.0 7.0 5.0 6.0 4.0 9.0 4.0 2.0 3.0 6.0 2.0 8.0 4.0 0.0 9.0 7.0 3.0 2.0 0.0 6.0 6.0 3.0 1.0 4.0 -184.0 8.0 5.0 6.0 4.0 3.0 8.0 1.0 9.0 5.0 3.0 5.0 8.0 2.0 
10.0 3.0 3.0 10.0 3.0 10.0 9.0 1.0 4.0 4.0 4.0 5.0 1.0 10.0 10.0 5.0 5.0 3.0 8.0 0.0 8.0 7.0 5.0 10.0 7.0 8.0 -223.0 0.0 9.0 6.0 9.0 5.0 9.0 5.0 6.0 7.0 5.0 7.0 2.0 
4.0 6.0 8.0 9.0 7.0 8.0 8.0 10.0 8.0 9.0 6.0 6.0 9.0 4.0 10.0 7.0 9.0 3.0 3.0 10.0 2.0 2.0 5.0 7.0 6.0 5.0 0.0 -216.0 10.0 6.0 4.0 1.0 6.0 2.0 1.0 4.0 3.0 5.0 3.0 
10.0 1.0 2.0 3.0 5.0 8.0 1.0 4.0 1.0 9.0 1.0 1.0 1.0 0.0 3.0 8.0 5.0 5.0 0.0 6.0 8.0 10.0 3.0 7.0 9.0 6.0 9.0 10.0 -202.0 2.0 8.0 5.0 8.0 5.0 8.0 9.0 6.0 5.0 10.0 
7.0 9.0 6.0 10.0 9.0 2.0 4.0 4.0 1.0 6.0 2.0 7.0 6.0 3.0 9.0 4.0 1.0 5.0 4.0 9.0 6.0 10.0 0.0 7.0 6.0 4.0 6.0 6.0 2.0 -197.0 4.0 4.0 4.0 1.0 10.0 4.0 0.0 9.0 6.0 
4.0 8.0 10.0 6.0 3.0 3.0 9.0 6.0 0.0 9.0 1.0 5.0 7.0 1.0 3.0 3.0 10.0 6.0 7.0 5.0 4.0 5.0 6.0 10.0 6.0 3.0 9.0 4.0 8.0 4.0 -212.0 10.0 10.0 6.0 7.0 7.0 5.0 1.0 1.0 
6.0 3.0 8.0 4.0 7.0 8.0 0.0 9.0 9.0 2.0 4.0 2.0 6.0 9.0 0.0 4.0 9.0 10.0 0.0 5.0 8.0 3.0 6.0 2.0 9.0 8.0 5.0 1.0 5.0 4.0 10.0 -206.0 6.0 0.0 6.0 6.0 7.0 9.0 6.0 
5.0 3.0 4.0 3.0 8.0 1.0 1.0 0.0 2.0 3.0 10.0 6.0 0.0 10.0 10.0 5.0 10.0 2.0 7.0 4.0 8.0 1.0 10.0 5.0 3.0 1.0 9.0 6.0 8.0 4.0 10.0 6.0 -201.0 8.0 9.0 8.0 7.0 3.0 1.0 
9.0 1.0 7.0 3.0 0.0 4.0 4.0 5.0 6.0 0.0 7.0 4.0 4.0 3.0 5.0 10.0 3.0 7.0 3.0 9.0 1.0 0.0 4.0 6.0 7.0 9.0 5.0 2.0 5.0 1.0 6.0 0.0 8.0 -171.0 1.0 10.0 1.0 1.0 10.0 
7.0 0.0 3.0 10.0 5.0 1.0 2.0 4.0 10.0 7.0 10.0 8.0 9.0 8.0 0.0 10.0 3.0 5.0 6.0 9.0 5.0 10.0 10.0 9.0 10.0 5.0 6.0 1.0 8.0 10.0 7.0 6.0 9.0 1.0 -230.0 9.0 1.0 1.0 5.0 
5.0 0.0 7.0 8.0 8.0 5.0 3.0 7.0 2.0 7.0 0.0 1.0 2.0 3.0 1.0 4.0 7.0 5.0 4.0 1.0 9.0 0.0 6.0 10.0 3.0 3.0 7.0 4.0 9.0 4.0 7.0 6.0 8.0 10.0 9.0 -187.0 3.0 4.0 5.0 
5.0 0.0 10.0 0.0 10.0 8.0 10.0 7.0 3.0 10.0 8.0 2.0 6.0 6.0 5.0 4.0 7.0 5.0 4.0 4.0 8.0 7.0 3.0 0.0 2.0 5.0 5.0 3.0 6.0 0.0 5.0 7.0 7.0 1.0 1.0 3.0 -187.0 9.0 1.0 
9.0 0.0 1.0 5.0 2.0 2.0 9.0 8.0 10.0 7.0 3.0 3.0 5.0 6.0 7.0 5.0 1.0 1.0 2.0 7.0 10.0 10.0 10.0 0.0 9.0 8.0 7.0 5.0 5.0 9.0 1.0 9.0 3.0 1.0 1.0 4.0 9.0 -202.0 8.0 
4.0 0.0 9.0 8.0 4.0 4.0 2.0 1.0 0.0 4.0 1.0 7.0 8.0 6.0 8.0 9.0 7.0 8.0 2.0 0.0 3.0 2.0 7.0 6.0 0.0 2.0 2.0 3.0 10.0 6.0 1.0 6.0 1.0 10.0 5.0 5.0 1.0 8.0 -170.0 

